c User generated cnf file
p cnf 13 28
3 -3 7 0 
1 10 -11 0 
4 -9 5 0 
9 -7 10 0 
8 4 -1 0 
4 7 -5 0 
1 3 -13 0 
6 -3 9 0 
2 9 -2 0 
13 6 -10 0 
11 1 -5 0 
12 13 -10 0 
6 6 -6 0 
6 -7 12 0 
4 9 -9 0 
6 -7 5 0 
2 8 -11 0 
9 3 -6 0 
7 5 -7 0 
13 -1 9 0 
4 -5 10 0 
10 -3 7 0 
13 -11 10 0 
2 -5 9 0 
4 -1 3 0 
9 -3 6 0 
1 -3 9 0 
9 9 -8 0 
